Name: Fis0506-1
Courses: 4
Rooms: 6
Days: 5
Periods_per_day: 6
Curricula: 2
Constraints: 1

COURSES:
c0001 t000 6 4 130
c0002 t001 6 4 75
c0003 t002 7 3 117
c0004 t003 3 3 75

ROOMS:
B	200
C	100
E	9
F	30
G	20
S	30

CURRICULA:
q000  2 c0001 c0002 
q001  2 c0003 c0004 

UNAVAILABILITY_CONSTRAINTS:
c0001 4 0

END.
